\Problem name: 

Minimize
OBJROW: - var(0) - var(1) - var(2) - var(3) - var(4) - var(5) - var(6) - var(7) - var(8) - var(9)
 - var(10) - var(11)
Subject To
constr(0):  var(0) <= 674.72577
constr(1):  var(2) <= 904.98743
constr(2):  var(6) <= 733.23438
constr(3):  var(8) <= 616.24286
constr(4):  var(0) + var(2) <= 904.98743
constr(5):  var(0) + var(6) <= 744.73956
constr(6):  var(0) + var(8) <= 674.72577
constr(7):  var(2) + var(6) <= 925.27252
constr(8):  var(2) + var(8) <= 904.98743
constr(9):  var(6) + var(8) <= 733.23438
constr(10):  var(0) + var(2) + var(6) <= 925.27252
constr(11):  var(0) + var(2) + var(8) <= 904.98743
constr(12):  var(0) + var(6) + var(8) <= 744.73956
constr(13):  var(2) + var(6) + var(8) <= 925.27252
constr(14):  var(0) + var(2) + var(6) + var(8) <= 925.27252
constr(15):  var(1) <= 430.11627
constr(16):  var(4) <= 430.11627
constr(17):  var(6) <= 831.39404
constr(18):  var(1) + var(4) <= 430.11627
constr(19):  var(1) + var(6) <= 831.39404
constr(20):  var(4) + var(6) <= 831.39404
constr(21):  var(1) + var(4) + var(6) <= 831.39404
constr(22):  var(3) <= 758.00134
constr(23):  var(5) <= 968.15912
constr(24):  var(6) <= 1014.33191
constr(25):  var(7) <= 924.08496
constr(26):  var(8) <= 816.92285
constr(27):  var(11) <= 729.54382
constr(28):  var(3) + var(5) <= 983.04590
constr(29):  var(3) + var(6) <= 1124.70227
constr(30):  var(3) + var(7) <= 929.03021
constr(31):  var(3) + var(8) <= 929.03021
constr(32):  var(3) + var(11) <= 758.00134
constr(33):  var(5) + var(6) <= 1103.19141
constr(34):  var(5) + var(7) <= 971.50018
constr(35):  var(5) + var(8) <= 969.46381
constr(36):  var(5) + var(11) <= 979.35162
constr(37):  var(6) + var(7) <= 1065.18579
constr(38):  var(6) + var(8) <= 1014.33191
constr(39):  var(6) + var(11) <= 1090.77100
constr(40):  var(7) + var(8) <= 924.08496
constr(41):  var(7) + var(11) <= 924.08496
constr(42):  var(8) + var(11) <= 924.08496
constr(43):  var(3) + var(5) + var(6) <= 1236.81055
constr(44):  var(3) + var(5) + var(7) <= 1062.44897
constr(45):  var(3) + var(5) + var(8) <= 1062.44897
constr(46):  var(3) + var(5) + var(11) <= 983.04590
constr(47):  var(3) + var(6) + var(7) <= 1124.70227
constr(48):  var(3) + var(6) + var(8) <= 1124.70227
constr(49):  var(3) + var(6) + var(11) <= 1124.70227
constr(50):  var(3) + var(7) + var(8) <= 929.03021
constr(51):  var(3) + var(7) + var(11) <= 929.03021
constr(52):  var(3) + var(8) + var(11) <= 929.03021
constr(53):  var(5) + var(6) + var(7) <= 1103.19141
constr(54):  var(5) + var(6) + var(8) <= 1103.19141
constr(55):  var(5) + var(6) + var(11) <= 1110.36792
constr(56):  var(5) + var(7) + var(8) <= 971.50018
constr(57):  var(5) + var(7) + var(11) <= 982.69263
constr(58):  var(5) + var(8) + var(11) <= 980.65625
constr(59):  var(6) + var(7) + var(8) <= 1065.18579
constr(60):  var(6) + var(7) + var(11) <= 1090.77100
constr(61):  var(6) + var(8) + var(11) <= 1090.77100
constr(62):  var(7) + var(8) + var(11) <= 924.08496
constr(63):  var(3) + var(5) + var(6) + var(7) <= 1236.81055
constr(64):  var(3) + var(5) + var(6) + var(8) <= 1236.81055
constr(65):  var(3) + var(5) + var(6) + var(11) <= 1236.81055
constr(66):  var(3) + var(5) + var(7) + var(8) <= 1062.44897
constr(67):  var(3) + var(5) + var(7) + var(11) <= 1062.44897
constr(68):  var(3) + var(5) + var(8) + var(11) <= 1062.44897
constr(69):  var(3) + var(6) + var(7) + var(8) <= 1124.70227
constr(70):  var(3) + var(6) + var(7) + var(11) <= 1124.70227
constr(71):  var(3) + var(6) + var(8) + var(11) <= 1124.70227
constr(72):  var(3) + var(7) + var(8) + var(11) <= 929.03021
constr(73):  var(5) + var(6) + var(7) + var(8) <= 1103.19141
constr(74):  var(5) + var(6) + var(7) + var(11) <= 1110.36792
constr(75):  var(5) + var(6) + var(8) + var(11) <= 1110.36792
constr(76):  var(5) + var(7) + var(8) + var(11) <= 982.69263
constr(77):  var(6) + var(7) + var(8) + var(11) <= 1090.77100
constr(78):  var(3) + var(5) + var(6) + var(7) + var(8) <= 1236.81055
constr(79):  var(3) + var(5) + var(6) + var(7) + var(11) <= 1236.81055
constr(80):  var(3) + var(5) + var(6) + var(8) + var(11) <= 1236.81055
constr(81):  var(3) + var(5) + var(7) + var(8) + var(11) <= 1062.44897
constr(82):  var(3) + var(6) + var(7) + var(8) + var(11) <= 1124.70227
constr(83):  var(5) + var(6) + var(7) + var(8) + var(11) <= 1110.36792
constr(84):  var(3) + var(5) + var(6) + var(7) + var(8) + var(11) <= 1236.81055
constr(85):  var(6) <= 617.96552
constr(86):  var(7) <= 504.36066
constr(87):  var(8) <= 502.72458
constr(88):  var(9) <= 501.52286
constr(89):  var(10) <= 558.76031
constr(90):  var(11) <= 500
constr(91):  var(6) + var(7) <= 617.96552
constr(92):  var(6) + var(8) <= 617.96552
constr(93):  var(6) + var(9) <= 617.96552
constr(94):  var(6) + var(10) <= 621.71411
constr(95):  var(6) + var(11) <= 617.96552
constr(96):  var(7) + var(8) <= 504.36066
constr(97):  var(7) + var(9) <= 504.36066
constr(98):  var(7) + var(10) <= 558.76031
constr(99):  var(7) + var(11) <= 504.36066
constr(100):  var(8) + var(9) <= 502.82751
constr(101):  var(8) + var(10) <= 558.76031
constr(102):  var(8) + var(11) <= 502.72458
constr(103):  var(9) + var(10) <= 558.76031
constr(104):  var(9) + var(11) <= 501.52286
constr(105):  var(10) + var(11) <= 558.76031
constr(106):  var(6) + var(7) + var(8) <= 617.96552
constr(107):  var(6) + var(7) + var(9) <= 617.96552
constr(108):  var(6) + var(7) + var(10) <= 621.71411
constr(109):  var(6) + var(7) + var(11) <= 617.96552
constr(110):  var(6) + var(8) + var(9) <= 617.96552
constr(111):  var(6) + var(8) + var(10) <= 621.71411
constr(112):  var(6) + var(8) + var(11) <= 617.96552
constr(113):  var(6) + var(9) + var(10) <= 621.71411
constr(114):  var(6) + var(9) + var(11) <= 617.96552
constr(115):  var(6) + var(10) + var(11) <= 621.71411
constr(116):  var(7) + var(8) + var(9) <= 504.36066
constr(117):  var(7) + var(8) + var(10) <= 558.76031
constr(118):  var(7) + var(8) + var(11) <= 504.36066
constr(119):  var(7) + var(9) + var(10) <= 558.76031
constr(120):  var(7) + var(9) + var(11) <= 504.36066
constr(121):  var(7) + var(10) + var(11) <= 558.76031
constr(122):  var(8) + var(9) + var(10) <= 558.76031
constr(123):  var(8) + var(9) + var(11) <= 502.82751
constr(124):  var(8) + var(10) + var(11) <= 558.76031
constr(125):  var(9) + var(10) + var(11) <= 558.76031
constr(126):  var(6) + var(7) + var(8) + var(9) <= 617.96552
constr(127):  var(6) + var(7) + var(8) + var(10) <= 621.71411
constr(128):  var(6) + var(7) + var(8) + var(11) <= 617.96552
constr(129):  var(6) + var(7) + var(9) + var(10) <= 621.71411
constr(130):  var(6) + var(7) + var(9) + var(11) <= 617.96552
constr(131):  var(6) + var(7) + var(10) + var(11) <= 621.71411
constr(132):  var(6) + var(8) + var(9) + var(10) <= 621.71411
constr(133):  var(6) + var(8) + var(9) + var(11) <= 617.96552
constr(134):  var(6) + var(8) + var(10) + var(11) <= 621.71411
constr(135):  var(6) + var(9) + var(10) + var(11) <= 621.71411
constr(136):  var(7) + var(8) + var(9) + var(10) <= 558.76031
constr(137):  var(7) + var(8) + var(9) + var(11) <= 504.36066
constr(138):  var(7) + var(8) + var(10) + var(11) <= 558.76031
constr(139):  var(7) + var(9) + var(10) + var(11) <= 558.76031
constr(140):  var(8) + var(9) + var(10) + var(11) <= 558.76031
constr(141):  var(6) + var(7) + var(8) + var(9) + var(10) <= 621.71411
constr(142):  var(6) + var(7) + var(8) + var(9) + var(11) <= 617.96552
constr(143):  var(6) + var(7) + var(8) + var(10) + var(11) <= 621.71411
constr(144):  var(6) + var(7) + var(9) + var(10) + var(11) <= 621.71411
constr(145):  var(6) + var(8) + var(9) + var(10) + var(11) <= 621.71411
constr(146):  var(7) + var(8) + var(9) + var(10) + var(11) <= 558.76031
constr(147):  var(6) + var(7) + var(8) + var(9) + var(10) + var(11) <= 621.71411
constr(148):  var(1) <= 353.55341
constr(149):  var(2) <= 820.69333
constr(150):  var(4) <= 357.62585
constr(151):  var(1) + var(2) <= 820.69333
constr(152):  var(1) + var(4) <= 357.62585
constr(153):  var(2) + var(4) <= 820.69333
constr(154):  var(1) + var(2) + var(4) <= 820.69333
constr(155):  var(0) <= 684.58337
constr(156):  var(2) <= 755.38983
constr(157):  var(3) <= 560.44623
constr(158):  var(5) <= 599.82581
constr(159):  var(7) <= 560.44623
constr(160):  var(11) <= 560.44623
constr(161):  var(0) + var(2) <= 755.38983
constr(162):  var(0) + var(3) <= 684.58337
constr(163):  var(0) + var(5) <= 686.43042
constr(164):  var(0) + var(7) <= 684.58337
constr(165):  var(0) + var(11) <= 684.58337
constr(166):  var(2) + var(3) <= 755.38983
constr(167):  var(2) + var(5) <= 755.60522
constr(168):  var(2) + var(7) <= 755.38983
constr(169):  var(2) + var(11) <= 755.38983
constr(170):  var(3) + var(5) <= 599.82581
constr(171):  var(3) + var(7) <= 560.44623
constr(172):  var(3) + var(11) <= 560.44623
constr(173):  var(5) + var(7) <= 599.82581
constr(174):  var(5) + var(11) <= 599.82581
constr(175):  var(7) + var(11) <= 560.44623
constr(176):  var(0) + var(2) + var(3) <= 755.38983
constr(177):  var(0) + var(2) + var(5) <= 755.60522
constr(178):  var(0) + var(2) + var(7) <= 755.38983
constr(179):  var(0) + var(2) + var(11) <= 755.38983
constr(180):  var(0) + var(3) + var(5) <= 686.43042
constr(181):  var(0) + var(3) + var(7) <= 684.58337
constr(182):  var(0) + var(3) + var(11) <= 684.58337
constr(183):  var(0) + var(5) + var(7) <= 686.43042
constr(184):  var(0) + var(5) + var(11) <= 686.43042
constr(185):  var(0) + var(7) + var(11) <= 684.58337
constr(186):  var(2) + var(3) + var(5) <= 755.60522
constr(187):  var(2) + var(3) + var(7) <= 755.38983
constr(188):  var(2) + var(3) + var(11) <= 755.38983
constr(189):  var(2) + var(5) + var(7) <= 755.60522
constr(190):  var(2) + var(5) + var(11) <= 755.60522
constr(191):  var(2) + var(7) + var(11) <= 755.38983
constr(192):  var(3) + var(5) + var(7) <= 599.82581
constr(193):  var(3) + var(5) + var(11) <= 599.82581
constr(194):  var(3) + var(7) + var(11) <= 560.44623
constr(195):  var(5) + var(7) + var(11) <= 599.82581
constr(196):  var(0) + var(2) + var(3) + var(5) <= 755.60522
constr(197):  var(0) + var(2) + var(3) + var(7) <= 755.38983
constr(198):  var(0) + var(2) + var(3) + var(11) <= 755.38983
constr(199):  var(0) + var(2) + var(5) + var(7) <= 755.60522
constr(200):  var(0) + var(2) + var(5) + var(11) <= 755.60522
constr(201):  var(0) + var(2) + var(7) + var(11) <= 755.38983
constr(202):  var(0) + var(3) + var(5) + var(7) <= 686.43042
constr(203):  var(0) + var(3) + var(5) + var(11) <= 686.43042
constr(204):  var(0) + var(3) + var(7) + var(11) <= 684.58337
constr(205):  var(0) + var(5) + var(7) + var(11) <= 686.43042
constr(206):  var(2) + var(3) + var(5) + var(7) <= 755.60522
constr(207):  var(2) + var(3) + var(5) + var(11) <= 755.60522
constr(208):  var(2) + var(3) + var(7) + var(11) <= 755.38983
constr(209):  var(2) + var(5) + var(7) + var(11) <= 755.60522
constr(210):  var(3) + var(5) + var(7) + var(11) <= 599.82581
constr(211):  var(0) + var(2) + var(3) + var(5) + var(7) <= 755.60522
constr(212):  var(0) + var(2) + var(3) + var(5) + var(11) <= 755.60522
constr(213):  var(0) + var(2) + var(3) + var(7) + var(11) <= 755.38983
constr(214):  var(0) + var(2) + var(5) + var(7) + var(11) <= 755.60522
constr(215):  var(0) + var(3) + var(5) + var(7) + var(11) <= 686.43042
constr(216):  var(2) + var(3) + var(5) + var(7) + var(11) <= 755.60522
constr(217):  var(0) + var(2) + var(3) + var(5) + var(7) + var(11) <= 755.60522
constr(218):  var(0) <= 1074.26782
constr(219):  var(2) <= 1156.07202
constr(220):  var(7) <= 933.19965
constr(221):  var(9) <= 922.69348
constr(222):  var(10) <= 1055.59888
constr(223):  var(11) <= 878.92688
constr(224):  var(0) + var(2) <= 1156.07202
constr(225):  var(0) + var(7) <= 1119.27087
constr(226):  var(0) + var(9) <= 1119.27087
constr(227):  var(0) + var(10) <= 1211.21057
constr(228):  var(0) + var(11) <= 1146.30408
constr(229):  var(2) + var(7) <= 1196.89600
constr(230):  var(2) + var(9) <= 1196.89600
constr(231):  var(2) + var(10) <= 1339.51257
constr(232):  var(2) + var(11) <= 1222.55078
constr(233):  var(7) + var(9) <= 933.19965
constr(234):  var(7) + var(10) <= 1120.53406
constr(235):  var(7) + var(11) <= 971.29938
constr(236):  var(9) + var(10) <= 1055.59888
constr(237):  var(9) + var(11) <= 922.69348
constr(238):  var(10) + var(11) <= 1055.59888
constr(239):  var(0) + var(2) + var(7) <= 1196.89600
constr(240):  var(0) + var(2) + var(9) <= 1196.89600
constr(241):  var(0) + var(2) + var(10) <= 1339.51257
constr(242):  var(0) + var(2) + var(11) <= 1222.55078
constr(243):  var(0) + var(7) + var(9) <= 1119.27087
constr(244):  var(0) + var(7) + var(10) <= 1211.21057
constr(245):  var(0) + var(7) + var(11) <= 1146.30408
constr(246):  var(0) + var(9) + var(10) <= 1211.21057
constr(247):  var(0) + var(9) + var(11) <= 1146.30408
constr(248):  var(0) + var(10) + var(11) <= 1211.21057
constr(249):  var(2) + var(7) + var(9) <= 1196.89600
constr(250):  var(2) + var(7) + var(10) <= 1339.51257
constr(251):  var(2) + var(7) + var(11) <= 1222.55078
constr(252):  var(2) + var(9) + var(10) <= 1339.51257
constr(253):  var(2) + var(9) + var(11) <= 1222.55078
constr(254):  var(2) + var(10) + var(11) <= 1339.51257
constr(255):  var(7) + var(9) + var(10) <= 1120.53406
constr(256):  var(7) + var(9) + var(11) <= 971.29938
constr(257):  var(7) + var(10) + var(11) <= 1120.53406
constr(258):  var(9) + var(10) + var(11) <= 1055.59888
constr(259):  var(0) + var(2) + var(7) + var(9) <= 1196.89600
constr(260):  var(0) + var(2) + var(7) + var(10) <= 1339.51257
constr(261):  var(0) + var(2) + var(7) + var(11) <= 1222.55078
constr(262):  var(0) + var(2) + var(9) + var(10) <= 1339.51257
constr(263):  var(0) + var(2) + var(9) + var(11) <= 1222.55078
constr(264):  var(0) + var(2) + var(10) + var(11) <= 1339.51257
constr(265):  var(0) + var(7) + var(9) + var(10) <= 1211.21057
constr(266):  var(0) + var(7) + var(9) + var(11) <= 1146.30408
constr(267):  var(0) + var(7) + var(10) + var(11) <= 1211.21057
constr(268):  var(0) + var(9) + var(10) + var(11) <= 1211.21057
constr(269):  var(2) + var(7) + var(9) + var(10) <= 1339.51257
constr(270):  var(2) + var(7) + var(9) + var(11) <= 1222.55078
constr(271):  var(2) + var(7) + var(10) + var(11) <= 1339.51257
constr(272):  var(2) + var(9) + var(10) + var(11) <= 1339.51257
constr(273):  var(7) + var(9) + var(10) + var(11) <= 1120.53406
constr(274):  var(0) + var(2) + var(7) + var(9) + var(10) <= 1339.51257
constr(275):  var(0) + var(2) + var(7) + var(9) + var(11) <= 1222.55078
constr(276):  var(0) + var(2) + var(7) + var(10) + var(11) <= 1339.51257
constr(277):  var(0) + var(2) + var(9) + var(10) + var(11) <= 1339.51257
constr(278):  var(0) + var(7) + var(9) + var(10) + var(11) <= 1211.21057
constr(279):  var(2) + var(7) + var(9) + var(10) + var(11) <= 1339.51257
constr(280):  var(0) + var(2) + var(7) + var(9) + var(10) + var(11) <= 1339.51257
constr(281):  var(3) <= 328.67328
constr(282):  var(4) <= 328.89862
constr(283):  var(11) <= 306.75723
constr(284):  var(3) + var(4) <= 657.57190
constr(285):  var(3) + var(11) <= 328.67328
constr(286):  var(4) + var(11) <= 635.65585
constr(287):  var(3) + var(4) + var(11) <= 657.57190
constr(288):  var(1) <= 430.11627
constr(289):  var(4) <= 430.11627
constr(290):  var(10) <= 828.06525
constr(291):  var(11) <= 613.21826
constr(292):  var(1) + var(4) <= 430.11627
constr(293):  var(1) + var(10) <= 828.06525
constr(294):  var(1) + var(11) <= 613.21826
constr(295):  var(4) + var(10) <= 828.06525
constr(296):  var(4) + var(11) <= 613.21826
constr(297):  var(10) + var(11) <= 828.06525
constr(298):  var(1) + var(4) + var(10) <= 828.06525
constr(299):  var(1) + var(4) + var(11) <= 613.21826
constr(300):  var(1) + var(10) + var(11) <= 828.06525
constr(301):  var(4) + var(10) + var(11) <= 828.06525
constr(302):  var(1) + var(4) + var(10) + var(11) <= 828.06525
constr(303):  var(3) <= 673.22314
constr(304):  var(5) <= 497.75092
constr(305):  var(9) <= 462.30365
constr(306):  var(10) <= 584.19092
constr(307):  var(3) + var(5) <= 673.22314
constr(308):  var(3) + var(9) <= 673.22314
constr(309):  var(3) + var(10) <= 675.03400
constr(310):  var(5) + var(9) <= 497.75092
constr(311):  var(5) + var(10) <= 584.19092
constr(312):  var(9) + var(10) <= 584.19092
constr(313):  var(3) + var(5) + var(9) <= 673.22314
constr(314):  var(3) + var(5) + var(10) <= 675.03400
constr(315):  var(3) + var(9) + var(10) <= 675.03400
constr(316):  var(5) + var(9) + var(10) <= 584.19092
constr(317):  var(3) + var(5) + var(9) + var(10) <= 675.03400
Bounds
End
